
Starting CP-SAT solver v9.15.6755
Parameters: random_seed: 2026073531 max_time_in_seconds: 2500 log_search_progress: true cp_model_presolve: true linearization_level: 2 num_search_workers: 4 cp_model_probing_level: 2 symmetry_level: 2

Initial satisfaction model '': (model_fingerprint: 0xebeb2dcfba417b62)
#Variables: 724 (598 primary variables)
  - 724 Booleans in [0,1]
#kBoolAnd: 110 (#enforced: 110) (#literals: 330)
#kBoolOr: 110 (#enforced: 110) (#literals: 220)
#kExactlyOne: 87 (#literals: 261)
#kLinear1: 42 (#enforced: 6)
#kLinear2: 336 (#enforced: 336) (#complex_domain: 110)
#kLinear3: 1'600 (#enforced: 6)
#kLinearN: 1'132 (#enforced: 243) (#terms: 9'111)

Starting presolve at 0.00s
  6.66e-04s  0.00e+00d  [DetectDominanceRelations] 
  8.65e-03s  0.00e+00d  [PresolveToFixPoint] #num_loops=3 #num_dual_strengthening=1 
  4.80e-05s  0.00e+00d  [ExtractEncodingFromLinear] #potential_supersets=88 
  3.03e-04s  0.00e+00d  [DetectDuplicateColumns] 
  1.07e-04s  0.00e+00d  [DetectDuplicateConstraints] #duplicates=14 
[Symmetry] Graph for symmetry has 4'813 nodes and 15'284 arcs.
[Symmetry] Symmetry computation done. time: 0.00126102 dtime: 0.0017888
[SAT presolve] num removable Booleans: 220 / 606
[SAT presolve] num trivial clauses: 0
[SAT presolve] [0s] clauses:2'663 literals:7'280 vars:500 one_side_vars:60 simple_definition:1 singleton_clauses:0
[SAT presolve] [0.000221306s] clauses:2'662 literals:7'273 vars:500 one_side_vars:60 simple_definition:1 singleton_clauses:0
[SAT presolve] [0.000542259s] clauses:2'418 literals:6'920 vars:387 one_side_vars:60 simple_definition:6 singleton_clauses:0
  1.33e-04s  0.00e+00d  [DetectDuplicateConstraintsWithDifferentEnforcements] 
  5.70e-03s  3.03e-03d  [Probe] #probed=1'250 #fixed_bools=16 #equiv=11 #new_binary_clauses=547 
  5.77e-04s  4.67e-04d  [MaxClique] Merged 636 constraints with 1'416 literals into 581 constraints with 1'316 literals
  8.64e-04s  0.00e+00d  [DetectDominanceRelations] 
  3.13e-03s  0.00e+00d  [PresolveToFixPoint] #num_loops=1 #num_dual_strengthening=1 
  1.17e-03s  0.00e+00d  [ProcessAtMostOneAndLinear] 
  1.01e-04s  0.00e+00d  [DetectDuplicateConstraints] #duplicates=8 
  8.94e-05s  0.00e+00d  [DetectDuplicateConstraintsWithDifferentEnforcements] 
  1.14e-03s  6.20e-05d  [DetectDominatedLinearConstraints] #relevant_constraints=811 #num_inclusions=322 #num_redundant=6 
  1.97e-04s  0.00e+00d  [DetectDifferentVariables] 
  7.99e-04s  8.98e-05d  [ProcessSetPPC] #relevant_constraints=3'143 #num_inclusions=284 
  2.91e-04s  3.53e-05d  [TransformClausesToExactlyOne] #num_amos=574 #num_clauses=1'784 #num_transformed=2 #num_checked=1'784 
  4.00e-05s  0.00e+00d  [DetectEncodedComplexDomains] 
  3.55e-05s  2.40e-07d  [FindAlmostIdenticalLinearConstraints] #num_tested_pairs=3 
  8.81e-04s  1.34e-03d  [FindBigAtMostOneAndLinearOverlap] 
  1.49e-03s  1.20e-03d  [FindBigVerticalLinearOverlap] #blocks=3 #saved_nz=314 
  3.50e-04s  6.09e-04d  [FindBigHorizontalLinearOverlap] #linears=446 
  3.48e-04s  2.79e-05d  [MergeClauses] #num_collisions=14 #num_merges=14 #num_saved_literals=34 
  8.42e-04s  0.00e+00d  [DetectDominanceRelations] 
  3.03e-03s  0.00e+00d  [PresolveToFixPoint] #num_loops=2 #num_dual_strengthening=1 
  8.21e-04s  0.00e+00d  [DetectDominanceRelations] 
  2.93e-03s  0.00e+00d  [PresolveToFixPoint] #num_loops=1 #num_dual_strengthening=1 
  1.42e-04s  0.00e+00d  [DetectDuplicateColumns] 
  9.22e-05s  0.00e+00d  [DetectDuplicateConstraints] 
[Symmetry] Graph for symmetry has 4'428 nodes and 13'469 arcs.
[Symmetry] Symmetry computation done. time: 0.000981875 dtime: 0.00134489
[SAT presolve] num removable Booleans: 104 / 466
[SAT presolve] num trivial clauses: 0
[SAT presolve] [0s] clauses:2'319 literals:6'660 vars:441 one_side_vars:124 simple_definition:23 singleton_clauses:0
[SAT presolve] [0.000247535s] clauses:2'319 literals:6'514 vars:441 one_side_vars:131 simple_definition:83 singleton_clauses:0
[SAT presolve] [0.000397467s] clauses:2'113 literals:6'056 vars:432 one_side_vars:172 simple_definition:54 singleton_clauses:0
  1.70e-04s  0.00e+00d  [DetectDuplicateConstraintsWithDifferentEnforcements] #without_enforcements=4 
  5.08e-03s  1.68e-03d  [Probe] #probed=1'234 #new_binary_clauses=130 
  3.86e-04s  1.98e-04d  [MaxClique] Merged 456 constraints with 994 literals into 445 constraints with 992 literals
  7.98e-04s  0.00e+00d  [DetectDominanceRelations] 
  2.90e-03s  0.00e+00d  [PresolveToFixPoint] #num_loops=1 #num_dual_strengthening=1 
  1.05e-03s  0.00e+00d  [ProcessAtMostOneAndLinear] 
  1.31e-04s  0.00e+00d  [DetectDuplicateConstraints] 
  9.52e-05s  0.00e+00d  [DetectDuplicateConstraintsWithDifferentEnforcements] 
  7.27e-04s  4.65e-05d  [DetectDominatedLinearConstraints] #relevant_constraints=809 #num_inclusions=260 #num_redundant=1 
  1.19e-04s  0.00e+00d  [DetectDifferentVariables] 
  7.07e-04s  6.77e-05d  [ProcessSetPPC] #relevant_constraints=2'987 #num_inclusions=65 
  2.71e-04s  3.21e-05d  [TransformClausesToExactlyOne] #num_amos=445 #num_clauses=1'686 #num_checked=1'686 
  4.62e-05s  0.00e+00d  [DetectEncodedComplexDomains] 
  4.09e-05s  1.90e-07d  [FindAlmostIdenticalLinearConstraints] #num_tested_pairs=3 
  7.30e-04s  9.32e-04d  [FindBigAtMostOneAndLinearOverlap] 
  1.14e-03s  8.28e-04d  [FindBigVerticalLinearOverlap] 
  3.58e-04s  5.78e-04d  [FindBigHorizontalLinearOverlap] #linears=446 
  3.13e-04s  2.59e-05d  [MergeClauses] #num_collisions=70 #num_merges=70 #num_saved_literals=181 
  8.22e-04s  0.00e+00d  [DetectDominanceRelations] 
  2.93e-03s  0.00e+00d  [PresolveToFixPoint] #num_loops=1 #num_dual_strengthening=1 
  7.98e-04s  0.00e+00d  [DetectDominanceRelations] 
  2.90e-03s  0.00e+00d  [PresolveToFixPoint] #num_loops=1 #num_dual_strengthening=1 
  1.76e-04s  0.00e+00d  [DetectDuplicateColumns] 
  9.69e-05s  0.00e+00d  [DetectDuplicateConstraints] 
[Symmetry] Graph for symmetry has 4'171 nodes and 12'537 arcs.
[Symmetry] Symmetry computation done. time: 0.000910401 dtime: 0.00126649
[SAT presolve] num removable Booleans: 95 / 457
[SAT presolve] num trivial clauses: 0
[SAT presolve] [0s] clauses:2'090 literals:5'994 vars:432 one_side_vars:173 simple_definition:54 singleton_clauses:0
[SAT presolve] [0.000204174s] clauses:2'090 literals:5'994 vars:432 one_side_vars:173 simple_definition:54 singleton_clauses:0
[SAT presolve] [0.000265339s] clauses:2'090 literals:5'994 vars:432 one_side_vars:173 simple_definition:54 singleton_clauses:0
  1.32e-04s  0.00e+00d  [DetectDuplicateConstraintsWithDifferentEnforcements] 
  5.06e-03s  1.68e-03d  [Probe] #probed=1'234 #new_binary_clauses=130 
  3.71e-04s  1.88e-04d  [MaxClique] 
  8.16e-04s  0.00e+00d  [DetectDominanceRelations] 
  2.94e-03s  0.00e+00d  [PresolveToFixPoint] #num_loops=1 #num_dual_strengthening=1 
  1.04e-03s  0.00e+00d  [ProcessAtMostOneAndLinear] 
  1.16e-04s  0.00e+00d  [DetectDuplicateConstraints] 
  1.01e-04s  0.00e+00d  [DetectDuplicateConstraintsWithDifferentEnforcements] 
  7.63e-04s  4.73e-05d  [DetectDominatedLinearConstraints] #relevant_constraints=809 #num_inclusions=264 #num_redundant=1 
  1.23e-04s  0.00e+00d  [DetectDifferentVariables] 
  7.01e-04s  6.64e-05d  [ProcessSetPPC] #relevant_constraints=2'983 #num_inclusions=55 
  2.75e-04s  3.21e-05d  [TransformClausesToExactlyOne] #num_amos=441 #num_clauses=1'686 #num_checked=1'686 
  5.42e-05s  0.00e+00d  [DetectEncodedComplexDomains] 
  4.79e-05s  1.30e-07d  [FindAlmostIdenticalLinearConstraints] #num_tested_pairs=2 
  7.22e-04s  8.95e-04d  [FindBigAtMostOneAndLinearOverlap] 
  1.10e-03s  7.90e-04d  [FindBigVerticalLinearOverlap] 
  3.35e-04s  5.47e-04d  [FindBigHorizontalLinearOverlap] #linears=446 
  3.53e-04s  2.59e-05d  [MergeClauses] #num_collisions=70 #num_merges=70 #num_saved_literals=181 
  8.35e-04s  0.00e+00d  [DetectDominanceRelations] 
  2.96e-03s  0.00e+00d  [PresolveToFixPoint] #num_loops=1 #num_dual_strengthening=1 
  3.01e-05s  0.00e+00d  [MergeNoOverlap] 
  3.14e-05s  0.00e+00d  [MergeNoOverlap2D] 

Presolve summary:
  - 36 affine relations were detected.
  - rule 'TODO dual: only one blocking constraint?' was applied 721 times.
  - rule 'TODO linear inclusion: superset is equality' was applied 65 times.
  - rule 'affine: new relation' was applied 36 times.
  - rule 'at_most_one: removed literals' was applied 73 times.
  - rule 'at_most_one: size one' was applied 72 times.
  - rule 'at_most_one: transformed into max clique' was applied 2 times.
  - rule 'bool_or: implications' was applied 85 times.
  - rule 'bool_or: only one literal' was applied 12 times.
  - rule 'bool_or: removed enforcement literal' was applied 557 times.
  - rule 'clauses: transformed into exactly one' was applied 2 times.
  - rule 'deductions: 673 stored' was applied 1 time.
  - rule 'duplicate: merged rhs of linear constraint' was applied 21 times.
  - rule 'duplicate: removed constraint' was applied 22 times.
  - rule 'duplicate: removed enforced constraint' was applied 4 times.
  - rule 'enforcement: false literal' was applied 51 times.
  - rule 'enforcement: true literal' was applied 20 times.
  - rule 'exactly_one: removed literals' was applied 27 times.
  - rule 'exactly_one: satisfied' was applied 13 times.
  - rule 'exactly_one: singleton' was applied 2 times.
  - rule 'exactly_one: size two' was applied 25 times.
  - rule 'exactly_one: x and not(x)' was applied 8 times.
  - rule 'incompatible linear: add implication' was applied 105 times.
  - rule 'linear + amo: empty after processing' was applied 5 times.
  - rule 'linear + amo: extracted enforcement literal' was applied 46 times.
  - rule 'linear + amo: trivial linear constraint' was applied 1 time.
  - rule 'linear inclusion: redundant containing constraint' was applied 2 times.
  - rule 'linear inclusion: redundant included constraint' was applied 3 times.
  - rule 'linear inclusion: sparsify superset' was applied 3 times.
  - rule 'linear matrix: common vertical rectangle' was applied 3 times.
  - rule 'linear1: x in domain' was applied 36 times.
  - rule 'linear2: convert ax + by != cte to clauses' was applied 260 times.
  - rule 'linear2: convert implied ax + by == cte to clauses' was applied 114 times.
  - rule 'linear2: implied ax + by = cte has only one solution' was applied 8 times.
  - rule 'linear: always true' was applied 413 times.
  - rule 'linear: coefficient strengthening by increasing it' was applied 2 times.
  - rule 'linear: empty' was applied 1 time.
  - rule 'linear: extracted at most one (max)' was applied 1 time.
  - rule 'linear: fixed or dup variables' was applied 880 times.
  - rule 'linear: negative clause' was applied 1'288 times.
  - rule 'linear: negative reified and' was applied 68 times.
  - rule 'linear: never in domain' was applied 5 times.
  - rule 'linear: positive at most one' was applied 40 times.
  - rule 'linear: positive equal one' was applied 1 time.
  - rule 'linear: reduced variable domains' was applied 4 times.
  - rule 'linear: remapped using affine relations' was applied 23 times.
  - rule 'presolve: 107 unused variables removed.' was applied 1 time.
  - rule 'presolve: iteration' was applied 3 times.
  - rule 'probing: bool_or reduced to implication' was applied 43 times.
  - rule 'probing: simplified clauses' was applied 16 times.
  - rule 'setppc: bool_or in at_most_one' was applied 10 times.
  - rule 'setppc: exactly_one included in linear' was applied 1 time.
  - rule 'setppc: reduced linear coefficients' was applied 1 time.
  - rule 'setppc: removed dominated constraints' was applied 72 times.

Presolved satisfaction model '': (model_fingerprint: 0x465455eb6b801f8d)
#Variables: 460 (394 primary variables)
  - 457 Booleans in [0,1]
  - 1 in [0,2]
  - 1 in [0,5]
  - 1 in [0,6]
#kAtMostOne: 37 (#literals: 156)
#kBoolAnd: 250 (#enforced: 250) (#literals: 654)
#kBoolAndClauses: 70 (#enforced: 70 #multi: 70) (#literals: 321)
#kBoolOr: 1'546 (#literals: 4'684)
#kExactlyOne: 47 (#literals: 190)
#kLinearN: 809 (#enforced: 110) (#terms: 5'319)
[Symmetry] Graph for symmetry has 3'904 nodes and 12'523 arcs.
[Symmetry] Symmetry computation done. time: 0.000807047 dtime: 0.00124892

Preloading model.
#Model   0.09s var:460/460 constraints:2759/2759

Starting search at 0.09s with 4 workers.
3 full problem subsolvers: [default_lp, max_lp, no_lp]
1 first solution subsolver: [fj]
2 interleaved subsolvers: [feasibility_pump, rins/rens]
2 helper subsolvers: [neighborhood_helper, synchronization_agent]

#Model   0.34s var:454/460 constraints:2754/2759
#Model   0.64s var:453/460 constraints:2753/2759
#Model   0.79s var:452/460 constraints:2753/2759
#Model   0.90s var:451/460 constraints:2752/2759
#Model   1.23s var:450/460 constraints:2751/2759
#Model  35.95s var:449/460 constraints:2733/2759
#Model 300.39s var:448/460 constraints:2731/2759
#Model 336.98s var:447/460 constraints:2710/2759
#Model 636.59s var:446/460 constraints:2695/2759
#Model 661.41s var:445/460 constraints:2679/2759
#Model 662.55s var:444/460 constraints:2658/2759
#Model 674.07s var:433/460 constraints:2518/2759
#Model 675.22s var:421/460 constraints:2352/2759
#Model 675.27s var:418/460 constraints:2333/2759
#Model 675.32s var:402/460 constraints:2109/2759
#Done  675.34s no_lp

Task timing                   n [     min,      max]      avg      dev     time         n [     min,      max]      avg      dev    dtime
        'default_lp':         1 [  11.25m,   11.25m]   11.25m   0.00ns   11.25m         2 [  1.76ms,   11.21m]    5.60m    5.60m   11.21m
  'feasibility_pump':      3348 [938.62us, 136.01ms]   1.60ms   2.35ms    5.35s      3347 [279.26us, 121.28ms] 318.20us   2.09ms    1.07s
                'fj':      2369 [113.40ms, 298.34ms] 141.30ms  10.12ms    5.58m      2369 [100.00ms, 100.15ms] 100.02ms  15.24us    3.95m
            'max_lp':         1 [  11.25m,   11.25m]   11.25m   0.00ns   11.25m         2 [ 99.02ms,   15.14m]    7.57m    7.57m   15.14m
             'no_lp':         1 [  11.25m,   11.25m]   11.25m   0.00ns   11.25m         2 [  1.46ms,   21.82m]   10.91m   10.91m   21.82m
         'rins/rens':      3072 [ 21.82ms, 169.68ms] 108.97ms  39.17ms    5.58m      3071 [650.32us, 100.30ms]  69.13ms  36.29ms    3.54m

Search stats     Bools  Conflicts    Branches  Restarts  BacktrackToRoot  Backtrack   BoolPropag  IntegerPropag
  'default_lp':    457     72'349   4'099'310       400          635'854    872'958   35'521'755     43'815'329
      'max_lp':    457     33'202   7'120'775       230        1'069'426  1'332'726   59'717'693     81'732'921
       'no_lp':    457  6'818'556  10'091'829    24'567          295'968  7'085'268  581'441'212    135'055'733

SAT formula      Fixed  Equiv  Total  VarLeft  BinaryClauses  PermanentClauses  TemporaryClauses
  'default_lp':     16      4    457      437          1'906            20'863             3'264
      'max_lp':     16      4    457      437          1'892            21'324             4'267
       'no_lp':    251      5    457      201          2'470            23'788               908

SAT stats        ClassicMinim   LitRemoved  LitRemovedBinary   LitLearned  LitForgotten   Subsumed
  'default_lp':        62'853      703'314           321'388    1'710'289       815'425     29'618
      'max_lp':        27'684      263'093           118'547      555'789        81'054     17'184
       'no_lp':     6'139'958  101'699'101        29'778'926  147'671'593   111'885'376  2'039'553

Vivification       Clauses  Decisions  LitTrue  Subsumed  LitRemoved  DecisionReused  Conflicts
  'default_lp':    701'703  3'914'459        1    10'573     104'376         222'029      1'093
      'max_lp':  1'163'623  6'945'324        0    11'221     112'688         307'880      1'288
       'no_lp':    251'464  2'049'733        4    16'393     213'906          70'736      1'325

Clause deletion    at_true  l_and_not(l)  to_binary  sub_conflict  sub_extra  sub_decisions  sub_eager  sub_vivify  sub_probing  sub_inpro  blocked  eliminated  forgotten    promoted  conflicts
    'default_lp':    6'011             1          9        29'147        246          1'129        471      10'573        3'356     11'266        0           0     26'245     134'187     72'349
        'max_lp':    5'124             3          8        17'002         68            437        182      11'221        3'138      7'727        0           0      3'080      46'720     33'202
         'no_lp':   60'894             4        176     2'002'066     15'093         89'773     37'487      16'393       11'450    105'242        0           0  4'458'199  15'455'978  6'818'556

Lp stats         Component  Iterations  AddedCuts  OPTIMAL  DUAL_F.  DUAL_U.
  'default_lp':          1   8'318'482     25'812   90'320        1   48'933
      'max_lp':          1   3'595'867     26'005   10'655   14'829    9'257

Lp dimension        Final dimension of first component
  'default_lp':    254 rows, 320 columns, 2234 entries
      'max_lp':  1330 rows, 460 columns, 20866 entries

Lp debug         CutPropag  CutEqPropag  Adjust  Overflow      Bad  BadScaling
  'default_lp':          0            9  48'931         0  843'429           0
      'max_lp':          0           26   9'255         0  753'792           0

Lp pool          Constraints  Updates  Simplif  Merged  Shortened  Split  Strengthened      Cuts/Call
  'default_lp':       10'574    6'427    4'296       0      4'383    534             0  25'812/28'697
      'max_lp':       12'060    9'778    9'818       2      9'791  1'650           633  26'005/34'078

Lp Cut            default_lp  max_lp
          CG_FF:         265      58
           CG_K:         144       5
          CG_KL:         119       4
           CG_R:         270      25
         Clique:           -      73
             IB:          15      10
       MIR_1_FF:         100     391
        MIR_1_K:          13      20
       MIR_1_KL:          38       2
        MIR_1_R:          85     207
      MIR_1_RLT:           -   2'435
       MIR_2_FF:         107     219
        MIR_2_K:          15      50
       MIR_2_KL:          37      27
        MIR_2_R:         104     239
       MIR_3_FF:          66      45
        MIR_3_K:           6       4
       MIR_3_KL:          15       2
        MIR_3_R:          49      76
       MIR_4_FF:          17       8
        MIR_4_K:           5       4
       MIR_4_KL:           6       3
        MIR_4_R:          20      80
       MIR_5_FF:           4       5
        MIR_5_K:           -       1
       MIR_5_KL:           1       -
        MIR_5_R:          16      52
       MIR_6_FF:           1       2
       MIR_6_KL:           1       -
        MIR_6_R:          11      69
      MIR_6_RBP:           -       1
   ZERO_HALF_FF:         106     203
    ZERO_HALF_K:           2       5
   ZERO_HALF_KL:           5       1
    ZERO_HALF_R:      24'081  21'622
  ZERO_HALF_RBP:          88      57

LNS stats       Improv/Calls  Closed  Difficulty  TimeLimit
  'rins/rens':     3071/3071     50%    7.91e-01       0.10

LS stats                                    Batches  Restarts/Perturbs   LinMoves   GenMoves  CompoundMoves  Bactracks  WeightUpdates  ScoreComputed
                             'fj_restart':      154                 43  4'529'735          0              0          0      3'482'982      5'517'221
                    'fj_restart_compound':       73                 37          0    728'628         68'326    330'079          1'559     12'913'295
                'fj_restart_compound_obj':       67                 37          0    656'871         66'443    295'130          1'398     11'830'820
            'fj_restart_compound_perturb':      164                 38          0  1'707'135         97'427    804'764          4'484     29'281'397
        'fj_restart_compound_perturb_obj':       90                 36          0    914'543         80'453    416'968          1'957     15'910'841
                       'fj_restart_decay':      105                 30  3'142'397          0              0          0        145'538      1'301'863
              'fj_restart_decay_compound':      349                 49          0  4'178'939        693'751  1'742'456          4'654     62'409'954
          'fj_restart_decay_compound_obj':      127                 32          0  1'459'758        244'669    607'458          1'691     22'631'201
      'fj_restart_decay_compound_perturb':      208                 41          0  2'437'049        402'604  1'017'133          2'772     37'097'953
  'fj_restart_decay_compound_perturb_obj':      161                 39          0  1'861'317        314'303    773'390          2'177     28'689'291
                   'fj_restart_decay_obj':      207                 46  6'196'990          0              0          0        287'159      2'563'531
               'fj_restart_decay_perturb':      170                 45  5'090'471          0              0          0        235'611      2'104'462
           'fj_restart_decay_perturb_obj':      158                 33  4'729'971          0              0          0        219'052      1'959'911
                         'fj_restart_obj':       88                 33  2'550'123          0              0          0      2'023'897      3'041'374
                     'fj_restart_perturb':      108                 47  3'253'707          0              0          0      2'438'992      3'636'638
                 'fj_restart_perturb_obj':      140                 42  4'131'393          0              0          0      3'347'819      4'674'885

Solution repositories    Added  Queried  Synchro
    'alternative_path':      0        0        0
      'best_solutions':      0        0        0
   'fj solution hints':    620        0      620
        'lp solutions':    234    3'072      234
                'pump':      0        0

Improving bounds shared    Num  Sym
            'default_lp':    6    0
                 'no_lp':  131    0

Clauses shared    #Exported  #Imported  #BinaryRead  #BinaryTotal
   'default_lp':      2'510     40'165          570         1'158
       'max_lp':      2'493     39'644          562         1'158
        'no_lp':     41'214      4'540        1'158         1'158

LRAT_status: NA
CpSolverResponse summary:
status: INFEASIBLE
objective: NA
best_bound: NA
integers: 332
booleans: 457
conflicts: 6818556
branches: 10091829
propagations: 581441212
integer_propagations: 135055733
restarts: 24567
lp_iterations: 0
walltime: 675.365
usertime: 675.365
deterministic_time: 3340.19
gap_integral: 0

{
  "board_size": 22,
  "parity_proved": 0,
  "target": 34,
  "child_id": 1431,
  "child_count": 2640,
  "partition": "unknown_pair_x_diag_plus_twos_x_diag_minus_twos",
  "build_seconds": 0.07604718208312988,
  "workers": 4,
  "requested_seed": 2026073531,
  "effective_seed": 2026073531,
  "main_diagonal_pair": [
    3,
    13
  ],
  "pair_index": 66,
  "diag_plus_twos": 16,
  "diag_minus_twos": 15,
  "pair_excess": 22,
  "residual_certificate_slack": 90,
  "analytic_minimum_line_defect": 46,
  "analytic_defect_details": {
    "row_costs": {
      "12": 6,
      "13": 3,
      "14": 0,
      "15": 0,
      "16": 0,
      "17": 0
    },
    "column_costs": {
      "12": 6,
      "13": 3,
      "14": 0,
      "15": 0,
      "16": 0,
      "17": 0
    },
    "plus_cost": 24,
    "minus_cost": 22,
    "row_column_minimum": 0
  },
  "maximal_line_constraints": 2455,
  "analytic_infeasible": false,
  "allowed_points": 242,
  "status": "INFEASIBLE",
  "proof_method": "cp_sat_all_lines_with_certificate_profile_cuts",
  "elapsed_seconds": 675.3654093742371,
  "branches": 10091829,
  "conflicts": 6818556
}
